20
1 3
1 7
1 8
1 9
1 10
1 14
1 17
1 18
1 20
2 3
2 7
2 8
2 11
2 12
2 14
2 17
3 4
3 10
3 12
3 14
3 16
3 18
3 19
4 6
4 11
4 12
4 15
4 16
4 17
5 6
5 7
5 14
5 15
5 18
5 20
6 8
6 9
6 10
6 13
6 15
6 17
6 18
6 19
6 20
7 8
7 10
7 14
7 16
7 18
8 9
8 11
8 12
8 13
8 17
8 18
8 19
9 14
9 16
9 20
10 13
10 16
10 17
11 14
11 15
11 18
12 14
12 15
13 15
13 17
13 19
14 15
14 16
14 18
17 18
17 20
19 20
